18
10 17
10 0
10 6
10 13
10 14
10 3
10 8
10 11
10 12
10 9
17 12
17 2
17 3
17 7
17 6
17 16
17 9
17 8
17 11
0 7
0 4
0 11
0 5
0 2
0 15
0 16
0 3
0 13
7 3
7 8
7 2
7 5
7 11
7 1
7 4
7 9
3 12
3 11
3 15
3 1
3 4
3 14
1 11
1 15
1 5
1 14
1 4
1 9
1 13
1 8
11 16
11 14
11 9
11 8
5 8
5 4
5 14
5 13
5 16
5 6
5 15
8 15
8 13
8 16
8 6
6 2
6 13
6 16
6 14
6 15
6 12
12 4
12 2
12 13
12 14
12 9
12 15
4 16
4 13
4 2
4 9
15 14
15 16
15 9
2 13
2 14
2 9
2 16
9 14
13 16
